120
150
50
53
46
50
59
52
54
41
60
60
51
57
52
54
42
49
60
55
53
44
44
41
59
44
58
49
50
47
59
58
48
52
57
44
53
48
53
49
53
45
44
60
56
51
45
48
43
60
49
56
60
60
59
60
53
50
42
45
47
50
41
49
41
51
43
53
49
48
46
56
60
48
45
60
49
54
51
51
57
41
59
47
42
52
47
45
45
52
51
57
57
49
53
42
41
56
60
48
42
53
48
41
54
54
58
51
49
51
42
41
49
44
50
60
60
60
60
44
53
57
